
100
26067

415 415
288 288
845 845
444 444
529 529
552 552
339 339
640 640
901 901
72 72
561 561
265 265
656 656
624 624
46 46
113 113
529 529
859 859
798 798
824 824
138 138
351 351
577 577
367 367
231 231
923 923
636 636
399 399
477 477
700 700
760 760
780 780
335 335
968 968
764 764
271 271
172 172
431 431
261 261
878 878
10 10
818 818
162 162
812 812
433 433
132 132
986 986
419 419
979 979
323 323
238 238
556 556
195 195
578 578
708 708
642 642
6 6
668 668
269 269
454 454
859 859
867 867
132 132
92 92
754 754
432 432
708 708
647 647
990 990
861 861
995 995
903 903
569 569
408 408
163 163
840 840
492 492
486 486
294 294
331 331
505 505
643 643
310 310
150 150
596 596
945 945
562 562
979 979
181 181
797 797
538 538
32 32
175 175
721 721
819 819
132 132
684 684
888 888
241 241
829 829
